p cnf 100 40
x -1 -3 5 -6 8 -9 -11 17 20 21 22 -25 29 -33 -35 -36 40 -41 42 43 46 47 -48 -49 -50 51 -56 -57 58 -59 -63 65 71 72 -74 76 79 -81 82 84 -86 -87 -89 -90 -94 -96 -97 99 0
x 1 -3 4 -6 -7 -8 -9 11 -12 14 15 16 -17 20 21 22 -23 -24 25 26 -30 -31 32 33 35 -36 -40 -42 -43 46 49 52 53 -54 57 -59 62 -63 -64 65 66 -69 70 -71 76 -79 -80 -81 -86 87 88 91 -93 94 97 99 0
x 2 -5 -8 9 10 13 16 -17 -21 22 -30 31 -33 34 38 40 45 51 -54 -55 56 58 60 -64 -65 -66 67 -73 -76 77 79 81 -85 -88 90 91 -95 -98 99 0
x -1 -3 4 5 7 -8 -10 12 -14 15 17 -21 22 23 24 26 -29 31 -33 -35 -41 -45 -47 48 -49 51 -53 55 56 57 -58 -59 60 -62 -65 -66 -68 70 -72 -73 74 75 -78 81 -85 87 89 91 -95 -96 97 99 0
x -3 5 -6 -8 -11 12 13 -15 -16 18 -19 -22 -26 32 35 36 37 38 39 -40 41 -46 -47 -48 49 50 -53 54 55 58 59 60 -62 -63 64 -65 -67 -68 -73 -75 80 -82 -84 -86 87 88 90 93 97 99 0
x 1 2 -4 -5 8 13 14 15 -17 20 -22 25 27 -28 29 -35 36 37 40 41 45 -46 -49 -50 52 53 -55 56 -58 -59 60 68 70 -71 -72 73 -74 78 -81 84 -85 86 -87 93 -96 0
x 2 3 7 8 9 10 -12 13 14 -15 16 -17 -18 -20 -21 -23 25 26 -28 -32 -34 -35 -45 -47 53 -54 -55 60 63 64 -65 -66 -68 -71 -72 73 -81 -86 89 -91 -93 95 96 97 -99 0
x 1 2 3 -4 -6 7 10 -12 13 -17 18 -19 20 21 -23 -29 -32 -33 -35 -39 42 43 44 -46 47 48 50 52 54 57 -60 -62 -63 65 68 -69 70 -72 -75 76 -77 79 -80 -82 83 84 87 89 91 -93 98 -99 0
x 1 -3 -4 8 9 -11 -15 16 17 -19 -21 -23 24 -25 -27 28 29 -31 -32 33 -37 -38 -41 -43 -44 47 49 50 51 -54 -56 59 -60 61 62 64 -65 66 68 70 71 72 -74 -75 78 -83 85 -90 -91 93 -94 -95 96 0
x -2 4 5 6 -8 -9 12 15 -18 -21 -23 24 -28 -32 33 -34 -35 37 -38 40 -41 -46 -47 -51 54 55 56 57 -61 62 64 -65 66 -67 68 69 70 -71 72 74 75 79 80 -81 -82 87 -93 94 95 97 0
x -1 -2 -4 6 10 -12 13 14 -15 -18 20 21 24 26 28 -29 -31 -37 -38 -40 -42 44 45 48 -50 51 -52 55 56 -57 -60 61 -62 64 -65 -68 69 -76 -77 -78 -79 -80 82 -86 89 -90 91 93 95 96 0
x -1 -3 5 -6 7 -9 10 13 15 -16 -17 -18 -20 -23 -25 -27 30 -34 35 36 37 -38 -40 41 42 -44 -46 -49 -50 51 -52 53 54 55 -56 -57 63 -64 65 -67 -71 74 -76 77 -78 82 83 84 -85 87 -88 -89 -92 -93 -95 96 -99 0
x -9 -15 -17 18 25 26 29 -30 -32 33 -34 36 37 39 -40 41 47 48 50 -51 52 55 56 -57 58 59 61 62 -63 -64 66 -67 -68 71 75 -78 -79 -85 -86 88 -89 90 91 92 93 96 -98 0
x 1 -2 -3 4 -5 8 -11 17 21 -22 27 -30 34 35 36 -37 -39 40 -45 -46 -48 -49 -54 -55 -56 -58 59 -60 63 -65 67 68 71 -73 78 80 -85 88 -89 -91 -94 -95 96 -97 -100 0
x -2 -3 -4 5 -8 13 14 16 18 19 -20 22 -24 25 28 -29 -30 -31 -32 33 -34 -35 41 43 -46 -47 -51 53 -55 56 57 60 61 62 -65 -67 71 72 74 75 -76 77 79 -82 85 86 87 -88 89 93 -95 -96 -99 0
x -1 4 7 8 10 -12 18 22 -24 27 -28 30 31 -32 -34 -36 37 39 -42 -44 -46 47 48 49 -51 -52 -56 57 60 61 62 63 64 65 66 68 -70 74 -77 -78 81 -82 84 -85 -86 87 -88 92 93 -97 -98 -99 100 0
x 1 2 6 8 -10 11 -12 -13 -14 15 16 18 20 -21 24 -25 26 27 28 -29 -30 -32 33 35 36 -37 -38 39 43 -44 47 -49 -50 -52 53 -54 56 61 62 63 -64 -65 68 70 -74 -75 -77 79 80 81 83 84 89 90 -91 92 93 -94 95 -97 -100 0
x -2 -7 -8 12 -13 -18 19 -20 21 -22 -27 28 30 -31 -33 34 36 -38 39 42 -43 44 -48 -49 -50 -52 -53 54 57 -60 61 63 67 69 -71 -74 -76 -77 79 80 -81 -82 -83 -85 -86 -89 91 -92 96 -98 99 0
x -3 4 8 -9 12 -13 -15 -18 -20 -21 22 26 27 29 -33 -35 -39 -42 -43 44 -49 -53 -56 57 61 -62 63 -65 -67 -68 -69 -70 76 -77 -78 80 81 84 86 -87 88 91 -92 93 96 97 98 99 100 0
x 1 3 -5 -6 -10 12 14 -16 -17 18 24 34 -35 37 -38 -39 -42 53 61 65 -69 72 -76 -77 -78 -79 -80 81 85 -86 87 -88 93 95 -96 -99 0
x -3 -6 8 9 -10 11 13 14 -15 19 20 -22 -24 -26 -27 30 35 40 44 45 -46 47 50 -53 -54 -56 -57 -58 61 62 64 -67 -68 -69 70 -73 -76 -77 80 81 -85 86 -87 90 91 -93 -94 95 -97 99 0
x 1 2 -4 6 -7 -9 11 12 13 15 16 -17 18 20 -25 27 29 -30 32 -33 35 -38 41 42 43 -45 -46 48 -50 -53 59 -62 63 -64 -65 -66 69 70 71 -72 -73 -75 -78 -83 84 -88 -89 92 -93 -94 97 -98 0
x -1 -3 4 -5 6 -8 -9 -11 14 -16 -17 18 23 -24 -27 29 31 -32 36 37 -38 -40 41 -46 47 -50 52 53 -55 -56 57 -59 -61 62 67 70 71 -72 73 76 79 82 83 -85 -89 -92 95 96 -97 -100 0
x 2 4 6 7 8 -9 -10 12 -13 14 16 17 18 19 -20 22 -23 24 -26 28 29 33 -34 -36 39 -41 -43 45 46 -47 48 -49 50 -53 56 -58 61 -62 64 65 66 68 -69 -71 72 74 -75 -76 -77 78 79 82 -86 -87 88 -94 -96 -97 0
x 1 2 3 -7 10 11 -13 14 16 -20 -27 -29 -31 -33 -36 -37 -40 41 -42 -45 48 49 -50 51 52 -55 -57 58 -61 64 -65 71 -72 -74 75 79 -80 81 86 87 -88 91 -93 95 96 -98 99 0
x 1 4 -7 9 -12 -19 -21 -23 -25 27 28 -29 -32 -34 -35 36 -41 42 -45 -46 -47 -51 -53 -54 57 -58 -59 60 63 -65 67 -68 73 -74 76 -79 -81 83 -85 -87 -90 91 -92 94 -95 -97 98 99 -100 0
x 3 -7 -9 12 -13 -14 16 18 22 24 25 26 27 -29 -30 31 -33 -37 39 48 49 -51 -52 54 59 60 -61 -62 -64 65 -68 -69 71 72 -78 79 80 -81 -83 -86 91 93 -97 -98 100 0
x 4 5 6 9 -13 -14 -15 -22 -29 33 -37 38 39 40 -42 43 -44 -47 48 50 52 -54 -55 -61 -62 63 -64 -65 69 -71 -75 76 78 79 -81 86 -88 -89 91 -92 -94 95 -96 98 -99 0
x -3 5 7 -10 12 -13 -14 -15 24 25 27 29 31 -32 -35 -37 -39 40 -42 45 46 49 50 -53 -54 -55 -56 58 61 67 68 70 -71 73 74 -82 84 85 86 88 -89 -93 -94 96 -98 99 100 0
x 2 -3 -5 7 -8 10 11 -12 -14 17 -18 22 -25 -26 -27 -29 32 -33 34 36 38 39 40 41 43 44 -45 46 47 -49 50 55 -57 -60 61 62 -63 -65 67 -68 69 70 72 -73 74 76 -77 80 -82 83 -85 -88 90 91 100 0
x -4 -6 7 -10 -11 13 14 -15 -16 19 21 22 23 -24 25 -26 28 30 -31 32 -33 -34 35 -43 44 -45 46 48 51 53 -54 55 -58 -60 62 66 70 72 -77 78 -81 82 -83 84 -86 -91 -93 -99 -100 0
x -2 -3 6 -9 10 12 13 -14 -15 -16 17 -20 -22 30 32 -33 34 37 39 42 45 48 -49 51 52 53 57 -59 60 -63 -71 75 78 79 -81 82 -83 -84 -85 -86 87 90 -93 96 0
x 1 3 -5 6 8 -9 15 -16 18 19 -20 24 25 27 28 30 -31 -34 -36 -37 42 44 -49 -52 -53 55 -56 57 60 -61 64 65 66 -67 -68 -69 -70 71 -72 -73 -75 -76 77 78 -80 86 -87 88 89 -92 -94 95 96 -97 -99 -100 0
x -1 2 6 8 -10 -14 16 -23 24 29 31 32 -38 -39 -40 42 44 -47 -48 -50 51 -53 -54 55 58 60 61 -63 65 -66 -67 70 -71 75 77 78 79 -81 -83 84 -88 -89 -92 -93 -95 96 -98 -99 0
x 2 4 -5 6 9 -15 -19 -21 -22 -23 -25 -28 -29 -30 35 -39 -40 41 42 -44 45 46 -47 48 50 -51 55 56 -57 -59 -60 64 -65 -67 70 -71 -72 -74 -75 -76 -78 -79 -80 -83 -84 86 89 -91 94 96 -97 -98 100 0
x -1 2 6 -8 10 13 -14 -18 -20 32 -34 -35 36 -40 41 42 44 -46 53 -58 -60 62 -63 -64 -65 66 -67 69 -70 -72 73 74 75 -80 82 84 -85 -86 88 -89 91 96 -97 0
x -1 -2 -3 5 6 -9 10 -12 -13 14 -15 -17 21 22 23 -24 35 -37 -39 40 -41 -46 -47 -49 52 -53 54 -55 -57 58 -59 61 -62 64 66 -69 70 75 -77 83 -84 -85 -86 87 89 91 -92 -93 -94 0
x 1 2 3 -4 7 8 9 -10 12 18 19 -25 -26 28 -33 35 -36 40 42 44 46 -48 49 51 -52 53 -54 57 61 -63 66 69 70 72 -73 -74 -76 81 -83 -87 88 -91 93 94 96 -97 100 0
x -1 3 -4 5 -6 -7 -9 10 12 15 19 24 25 31 34 -35 37 38 39 -40 41 42 -43 -45 47 -48 50 52 54 -55 -57 58 59 -62 -63 -64 66 67 71 72 -73 -76 84 -85 -87 88 -99 0
x 1 6 -7 8 10 11 12 -13 -14 15 -16 17 -19 -20 -21 -22 -25 26 27 30 31 -32 -33 35 36 39 -40 41 42 49 -53 54 -55 57 58 -60 62 63 64 -65 66 -67 68 -69 72 73 -74 75 -78 83 -84 85 -86 -88 -89 90 91 93 95 -97 98 100 0
g -40